ssat_solver_solve2
#level: 2
Abc_NtkNodeNum(s->pNtk): 234  , BDD limit: 10240
Build BDD success
level 1: 10 element
Exist
level 0: 10 element
Random
c ssat solving in ABC
#var: 20
s SATISFIABLE
  > Upper bound = 6.054688e-01
  > Lower bound = 6.054688e-01
FINISHED CPU 0.12 MEM 60028 MAXMEM 60028 STALE 0 MAXMEM_RSS 0
<time name="ALL">160</time>
real 0.27
user 0.22
sys 0.13
